12 66
1 2 5
1 3 5
1 4 3
1 5 3
1 6 2
1 7 4
1 8 2
1 9 4
1 10 5
1 11 1
1 12 3
2 3 4
2 4 5
2 5 5
2 6 5
2 7 1
2 8 4
2 9 4
2 10 4
2 11 2
2 12 1
3 4 5
3 5 1
3 6 2
3 7 3
3 8 1
3 9 3
3 10 3
3 11 3
3 12 4
4 5 5
4 6 4
4 7 1
4 8 2
4 9 1
4 10 5
4 11 5
4 12 5
5 6 1
5 7 5
5 8 1
5 9 5
5 10 2
5 11 2
5 12 5
6 7 4
6 8 5
6 9 1
6 10 4
6 11 4
6 12 5
7 8 1
7 9 2
7 10 5
7 11 2
7 12 2
8 9 5
8 10 5
8 11 1
8 12 2
9 10 1
9 11 5
9 12 1
10 11 1
10 12 5
11 12 2
